p tw 40 601 3 
1 8 
1 9 
2 4 
2 7 
2 10 
3 8 
3 10 
4 7 
4 9 
5 9 
5 10 
5 15 
6 7 
6 8 
6 16 
11 18 
11 19 
11 21 
12 17 
12 20 
12 22 
13 18 
13 20 
13 23 
14 17 
14 19 
14 24 
15 19 
15 20 
16 17 
16 18 
21 28 
21 29 
22 27 
22 30 
23 28 
23 30 
24 27 
24 29 
25 29 
25 30 
25 35 
26 27 
26 28 
26 36 
31 33 
31 38 
31 39 
32 34 
32 37 
32 40 
33 38 
33 40 
34 37 
34 39 
35 39 
35 40 
36 37 
36 38 
